#************************************************************************************
#*                   Generated by cif2cell 2.0.0 2023-11-22 18:19                   *
#*  T. Bjorkman, Comp. Phys. Commun. 182, 1183-1186 (2011). Please cite generously. *
#*                                                                                  *
#*                              Data obtained from COD                              *
#*                                    KAlH3   ()                                    *
#*             Failed to get author information, No journal information             *
#************************************************************************************

&SYSTEM
  ibrav = 0
  A =    3.98168
  nat = 5
  ntyp = 3
/
CELL_PARAMETERS {alat}
  1.000000000000000   0.000000000000000   0.000000000000000 
  0.000000000000000   1.000000000000000   0.000000000000000 
  0.000000000000000   0.000000000000000   1.000000000000000 
ATOMIC_SPECIES
   K   39.09830   K_PSEUDO
   H    1.00750   H_PSEUDO
  Al   26.98100  Al_PSEUDO
ATOMIC_POSITIONS {crystal}
 K   0.500000000000000   0.500000000000000   0.500000000000000 
Al   0.000000000000000   0.000000000000000   0.000000000000000 
 H   0.000000000000000   0.000000000000000   0.500000000000000 
 H   0.000000000000000   0.500000000000000   0.000000000000000 
 H   0.500000000000000   0.000000000000000   0.000000000000000 
